proyfinal/src/viki/013/andrea/andrea-localstore/experimentInOfficeAgust.take6/worker_10/2bab9398-0bd6-4a30-8283-35cc2a1e5fc2.als.cnf.out
Reading from standard input... Use '--help' for help.
============================[ Problem Statistics ]=============================
|                                                                             |
|  Number of variables:         87638                                         |
|  Number of clauses:          161767                                         |
|  Parse time:                   0.04 s                                       |
|                                                                             |
============================[ Search Statistics ]==============================
| Conflicts |          ORIGINAL         |          LEARNT          | Progress |
|           |    Vars  Clauses Literals |    Limit  Clauses Lit/Cl |          |
===============================================================================
|       100 |   61937   103657   258918 |    38007      100     34 | 29.326 % |
|       250 |   61937   103657   258918 |    41808      250     54 | 29.327 % |
|       475 |   61937   103657   258918 |    45989      475     45 | 29.326 % |
|       812 |   61937   103657   258918 |    50588      812     49 | 29.326 % |
|      1318 |   61936   103613   258828 |    55646     1315     59 | 29.327 % |
|      2077 |   61936   103613   258828 |    61211     2074     61 | 29.327 % |
|      3216 |   61935   103610   258822 |    67332     3212     66 | 29.329 % |
|      4924 |   47603    62903   159093 |    74065     4880     57 | 45.682 % |
|      7486 |   46931    61076   154680 |    81472     7062     52 | 46.449 % |
===============================================================================
restarts              : 40
conflicts             : 9393           (7798 /sec)
decisions             : 30532          (0.00 % random) (25346 /sec)
propagations          : 13506385       (11212452 /sec)
conflict literals     : 460069         (46.35 % deleted)
Memory used           : 25.58 MB
CPU time              : 1.20459 s

UNSATISFIABLE
